100
100
3000 3000 3000 3000 3000 3000 3000 3000 3000 3000 3000 3000 3000 3000 3000 3000 3000 3000 3000 3000 3000 3000 3000 3000 3000 3000 3000 3000 3000 3000 3000 3000 3000 3000 3000 3000 3000 3000 3000 3000 3000 3000 3000 3000 3000 3000 3000 3000 3000 3000 3000 3000 3000 3000 3000 3000 3000 3000 3000 3000 3000 3000 3000 3000 3000 3000 3000 3000 3000 3000 3000 3000 3000 3000 3000 3000 3000 3000 3000 3000 3000 3000 3000 3000 3000 3000 3000 3000 3000 3000 3000 3000 3000 3000 3000 3000 3000 3000 3000 3000
0 11 4
0 14 4
0 19 4
0 20 1
0 21 3
0 32 3
0 61 4
0 76 1
0 80 3
0 96 1
1 3 3
1 29 1
1 40 1
1 42 4
1 52 0
1 58 4
1 88 2
1 91 3
2 10 4
2 31 0
2 36 0
2 37 0
2 53 3
2 56 0
2 71 0
2 75 0
3 9 4
3 10 2
3 18 4
3 20 0
3 43 4
3 50 2
3 64 1
3 70 0
3 78 1
3 83 3
3 92 2
4 4 2
4 5 0
4 19 3
4 36 2
4 37 1
4 39 2
4 58 0
4 65 1
4 74 2
4 91 1
5 9 3
5 14 4
5 16 3
5 21 2
5 41 2
5 59 1
5 60 4
5 76 1
5 79 0
5 98 0
6 1 0
6 12 4
6 13 4
6 36 4
6 67 1
6 90 0
7 6 4
7 22 1
7 24 2
7 48 4
7 57 3
7 60 4
7 68 1
7 89 2
7 97 1
8 9 0
8 23 0
8 26 2
8 32 2
8 45 1
8 78 2
8 83 4
9 16 3
9 18 0
9 21 3
9 27 3
9 31 3
9 36 4
9 41 4
9 47 3
9 62 1
9 71 2
9 72 4
9 76 2
9 80 1
10 3 1
10 7 2
10 22 0
10 64 3
10 69 3
10 75 0
10 92 4
10 99 1
11 3 4
11 27 3
11 38 4
11 63 0
11 90 3
11 93 1
12 6 1
12 24 0
12 38 1
12 39 3
12 48 3
12 60 4
12 67 3
12 72 3
12 79 4
12 80 4
13 12 2
13 15 3
13 23 4
13 29 0
13 40 4
13 48 4
13 49 2
13 70 1
13 74 1
13 76 3
13 79 0
13 97 3
14 5 1
14 8 0
14 13 0
14 27 2
14 41 4
14 43 0
14 44 1
15 3 2
15 60 0
15 69 4
15 71 2
15 72 2
15 73 0
15 87 4
15 88 0
16 5 2
16 6 2
16 10 0
16 20 2
16 23 3
16 30 1
16 49 0
16 61 0
16 62 0
16 80 3
16 82 3
16 83 0
16 86 4
16 96 1
17 5 2
17 20 1
17 25 4
17 52 1
17 75 1
17 79 1
17 91 2
17 96 0
18 5 0
18 22 0
18 28 2
18 41 4
18 44 0
18 54 0
18 56 2
18 62 3
18 83 4
18 91 3
18 96 1
18 99 2
19 7 2
19 23 1
19 24 2
19 58 1
19 64 3
19 77 0
19 78 0
20 3 4
20 10 4
20 22 0
20 61 4
20 64 3
20 68 2
21 2 1
21 26 3
21 28 3
21 42 0
21 47 3
21 49 2
21 56 3
21 58 4
21 60 3
21 77 2
21 95 2
21 97 0
22 4 3
22 12 4
22 14 4
22 18 4
22 19 2
22 20 2
22 50 2
22 62 1
22 74 1
22 81 4
23 17 4
23 28 2
23 34 1
23 39 0
23 47 0
23 53 0
23 59 1
23 95 4
24 5 0
24 13 0
24 19 2
24 25 3
24 27 4
24 33 2
24 36 4
25 20 1
25 23 1
25 29 0
25 36 2
25 76 4
25 90 4
26 8 2
26 14 4
26 18 4
26 25 4
26 31 4
26 33 4
26 40 3
26 49 2
26 60 2
26 61 2
26 68 4
26 80 0
26 85 1
26 88 2
26 94 2
27 3 3
27 14 2
27 25 3
27 34 0
27 53 0
27 56 4
27 64 3
27 68 4
27 73 2
27 79 2
27 80 4
27 99 3
28 22 4
28 25 3
28 27 1
28 66 3
28 81 0
28 98 2
29 5 4
29 10 3
29 19 1
29 52 2
29 65 3
29 75 4
29 89 4
29 92 3
30 2 4
30 8 0
30 12 1
30 15 0
30 17 2
30 19 4
30 30 4
30 34 1
30 39 4
30 50 1
30 65 1
30 74 1
30 76 1
30 93 3
30 98 2
31 23 3
31 25 0
31 34 3
31 50 1
31 66 1
31 67 1
31 83 4
31 88 1
31 89 2
31 98 0
32 14 0
32 26 0
32 27 3
32 30 3
32 54 1
32 58 3
32 64 0
32 67 2
32 71 2
32 81 3
32 86 3
32 96 0
33 8 0
33 9 0
33 15 0
33 27 3
33 33 0
33 45 4
33 48 1
33 53 2
33 56 4
33 65 1
33 76 0
33 79 4
33 94 4
33 95 4
33 98 1
34 16 1
34 42 4
34 45 2
34 72 0
34 77 2
34 80 2
34 85 0
35 0 3
35 2 3
35 17 4
35 21 3
35 24 0
35 26 0
35 31 2
35 33 1
35 34 4
35 43 0
35 68 3
35 85 3
35 94 0
36 3 2
36 8 3
36 17 4
36 19 4
36 48 0
36 51 1
36 54 3
36 70 0
36 86 0
36 88 1
36 91 1
37 34 3
37 42 3
37 47 0
37 58 4
37 67 1
37 69 4
37 72 3
37 74 2
37 78 2
37 84 3
37 88 2
37 90 2
38 15 2
38 18 1
38 22 2
38 28 4
38 32 0
38 33 1
38 40 2
38 51 0
38 53 3
38 81 4
38 87 1
38 99 2
39 1 0
39 7 3
39 17 4
39 22 3
39 39 1
39 51 3
39 52 2
39 66 3
39 69 4
39 75 4
39 77 0
39 91 2
40 4 4
40 19 3
40 23 3
40 26 4
40 49 2
40 53 4
40 58 3
40 67 0
40 74 2
40 79 0
40 93 3
41 1 3
41 2 4
41 4 1
41 30 4
41 35 1
41 36 2
41 37 2
41 41 1
41 44 2
41 45 3
41 54 3
41 57 3
41 70 1
41 82 0
42 0 1
42 4 1
42 30 0
42 42 3
42 63 4
42 94 4
43 5 1
43 6 1
43 11 4
43 28 4
43 32 2
43 37 0
43 38 1
43 43 0
43 44 4
43 55 1
43 73 2
43 93 4
43 99 2
44 0 1
44 14 4
44 54 1
44 72 1
44 78 2
45 10 1
45 11 4
45 33 2
45 34 2
45 42 2
45 51 0
45 57 1
45 73 3
45 87 3
45 97 1
46 11 0
46 13 2
46 14 3
46 19 4
46 28 4
46 29 2
46 36 4
46 40 4
46 54 3
46 55 2
46 70 2
46 75 1
47 6 0
47 7 2
47 20 2
47 21 3
47 30 3
47 50 4
47 65 0
47 70 2
47 74 0
48 2 4
48 6 3
48 29 1
48 38 0
48 50 3
48 51 0
48 68 3
48 72 3
48 84 2
48 99 2
49 13 0
49 16 2
49 18 2
49 19 4
49 20 0
49 24 3
49 38 4
49 41 1
49 43 1
49 44 3
49 69 2
49 78 1
49 84 3
49 89 3
49 95 2
50 0 1
50 33 0
50 37 1
50 47 0
50 52 4
50 62 1
50 65 3
50 73 3
50 81 2
50 86 3
50 92 3
50 99 2
51 20 0
51 21 2
51 35 1
51 44 2
51 51 4
51 53 3
51 58 0
51 64 0
51 68 3
51 69 2
51 77 3
51 82 4
52 10 3
52 26 1
52 31 2
52 35 2
52 43 1
52 55 2
52 57 1
52 71 1
52 85 3
53 1 0
53 7 4
53 29 0
53 46 1
53 88 0
53 90 4
53 91 2
54 7 0
54 9 3
54 22 1
54 50 0
54 62 2
54 85 4
54 87 4
54 93 3
54 95 3
54 98 2
55 1 3
55 40 4
55 47 0
55 54 0
55 59 4
55 60 3
55 63 0
55 81 4
55 82 4
55 84 1
55 88 0
55 90 1
55 92 2
55 99 0
56 4 3
56 5 3
56 29 4
56 68 4
56 69 3
56 72 2
56 91 2
56 92 3
57 43 2
57 47 4
57 62 2
57 63 0
57 64 1
57 67 0
57 96 1
58 0 2
58 10 1
58 17 2
58 30 4
58 31 1
58 34 4
58 56 3
58 57 1
58 63 0
58 80 3
58 83 2
58 85 0
58 87 3
58 93 0
58 98 3
59 15 0
59 16 4
59 27 2
59 31 1
59 41 4
59 47 3
59 86 2
59 94 3
59 97 4
60 9 3
60 17 1
60 20 2
60 21 3
60 37 4
60 46 2
60 57 3
60 66 0
61 0 3
61 24 0
61 25 2
61 32 0
61 35 4
61 41 3
61 46 4
61 49 3
61 60 4
61 65 3
61 69 3
61 85 2
61 96 1
62 9 1
62 13 2
62 21 4
62 24 0
62 29 4
62 31 2
62 35 2
62 46 1
62 48 3
62 49 0
62 51 4
62 59 3
62 60 2
62 92 2
63 2 4
63 3 2
63 25 2
63 33 4
63 42 0
63 48 4
63 50 0
63 81 0
63 83 2
63 84 4
63 86 0
63 88 3
63 97 0
64 7 3
64 25 3
64 55 3
64 96 1
65 30 4
65 35 0
65 50 2
65 75 2
65 92 2
65 93 3
66 3 3
66 21 1
66 38 3
66 39 2
66 55 3
66 67 4
66 74 1
66 83 4
66 86 4
66 89 4
66 93 4
67 11 1
67 15 4
67 44 3
67 46 0
67 53 3
67 57 3
67 59 3
67 70 4
67 74 0
67 86 0
67 87 4
67 90 2
68 7 2
68 8 2
68 9 1
68 11 0
68 12 0
68 23 3
68 38 0
68 41 1
68 42 1
68 63 1
68 84 0
68 89 3
69 36 0
69 44 0
69 67 4
69 73 2
69 98 1
70 1 1
70 26 1
70 38 4
70 59 0
70 70 4
70 72 3
70 79 0
70 82 3
71 25 0
71 26 3
71 40 3
71 52 0
71 53 1
71 75 0
71 79 1
72 8 3
72 13 4
72 17 4
72 22 0
72 23 4
72 32 1
72 56 2
72 76 0
72 87 4
72 92 4
72 98 1
73 29 3
73 30 1
73 34 3
73 38 4
73 39 3
73 40 3
73 46 1
73 49 2
73 52 3
73 55 3
73 66 0
73 75 4
73 87 3
74 16 1
74 37 4
74 46 4
74 63 1
74 66 4
74 71 1
74 84 1
74 98 1
75 14 4
75 47 1
75 49 1
75 65 4
75 73 4
75 82 2
76 0 4
76 8 0
76 9 1
76 16 0
76 42 3
76 45 0
76 61 2
76 73 0
76 77 3
76 83 1
77 1 0
77 4 4
77 12 3
77 13 4
77 27 1
77 47 4
77 51 1
77 59 3
77 66 3
77 68 4
77 81 4
77 90 1
77 95 0
78 26 3
78 37 4
78 61 0
78 63 3
78 66 2
78 77 2
78 94 3
79 24 3
79 35 1
79 39 1
79 51 0
79 57 2
79 62 2
79 79 2
79 81 4
79 95 4
79 96 2
79 99 3
80 1 1
80 5 4
80 8 0
80 21 3
80 37 1
80 55 2
80 74 3
80 94 4
80 95 4
80 97 0
81 2 4
81 3 0
81 12 1
81 14 2
81 28 3
81 33 2
81 44 1
81 45 4
81 52 1
81 65 2
81 68 3
81 71 0
81 84 3
81 97 0
82 59 4
82 76 2
82 77 1
82 85 2
82 90 4
83 7 4
83 13 2
83 15 4
83 24 1
83 37 4
83 39 2
83 44 0
83 50 0
83 55 2
83 67 3
83 80 1
83 85 4
84 0 1
84 4 1
84 6 3
84 16 1
84 52 2
84 54 3
84 62 4
84 66 1
84 72 1
84 75 2
84 78 2
84 83 1
84 93 2
85 4 0
85 12 4
85 17 0
85 28 3
85 32 2
85 42 4
85 56 2
85 64 0
85 70 0
85 82 2
85 96 0
86 11 4
86 16 3
86 58 1
86 82 3
86 84 3
86 87 0
86 89 1
86 91 1
87 6 2
87 10 3
87 18 1
87 30 3
87 31 1
87 36 4
87 46 0
87 58 1
87 77 3
88 2 4
88 15 0
88 26 2
88 40 1
88 45 0
88 46 4
88 49 4
88 63 0
88 73 2
88 76 3
89 0 1
89 1 2
89 4 4
89 16 1
89 33 4
89 35 2
89 59 0
89 64 1
89 78 1
89 80 2
89 94 3
89 97 2
90 2 1
90 7 1
90 11 1
90 17 4
90 18 3
90 24 0
90 32 2
90 48 3
90 57 2
90 63 4
90 65 3
90 77 2
90 81 0
90 86 3
90 97 0
91 2 4
91 10 1
91 29 0
91 35 0
91 38 4
91 40 3
91 60 4
91 61 0
91 82 3
91 84 1
91 86 3
91 89 4
91 93 0
92 23 1
92 27 3
92 28 4
92 31 4
92 43 0
92 53 2
92 54 2
92 55 3
92 71 4
92 78 4
92 89 3
92 91 2
92 92 2
93 6 0
93 9 0
93 15 1
93 28 2
93 35 4
93 41 4
93 45 3
93 48 3
93 57 4
93 69 2
93 71 4
93 73 1
93 89 0
93 95 0
94 0 4
94 18 0
94 45 4
94 48 3
94 52 3
94 61 4
94 69 3
94 85 2
94 87 1
94 88 0
95 11 1
95 13 3
95 22 0
95 55 4
95 62 1
95 66 0
95 94 4
95 95 2
95 99 0
96 6 1
96 8 4
96 11 4
96 12 4
96 18 4
96 54 0
96 56 0
96 71 4
97 12 0
97 32 0
97 70 0
98 1 2
98 15 2
98 34 2
98 39 3
98 43 3
98 45 4
98 46 0
98 61 4
98 82 2
98 90 4
98 94 0
99 32 0
99 43 2
99 51 4
99 56 1
99 59 2
99 61 1
99 78 0
